c Sudoku solution
p cnf 729 0
143 0
175 0
189 0
239 0
293 0
356 0
387 0
414 0
438 0
451 0
559 0
645 0
652 0
679 0
429 0
698 0
716 0
777 0
835 0
848 0
568 0
873 0
911 0
819 0
986 0
866 0
994 0
799 0
785 0
978 0
728 0
288 0
158 0
318 0
495 0
597 0
196 0
226 0
636 0
392 0
891 0
882 0
483 0
472 0
576 0
467 0
663 0
544 0
446 0
581 0
684 0
621 0
617 0
513 0
532 0
525 0
215 0
365 0
349 0
112 0
922 0
323 0
947 0
854 0
753 0
955 0
969 0
734 0
933 0
827 0
124 0
331 0
137 0
161 0
271 0
374 0
741 0
762 0
242 0
257 0
264 0
